maximize
obj: 1 x_1,1_ + 1 x_1,2_ + 1 x_1,3_ + 1 x_1,4_ + 1 x_1,5_ + 1 x_1,6_ + 1 x_1,7_ + 1 x_1,8_ + 1 x_1,9_ + 1 x_1,10_ + 1 x_2,1_ + 1 x_2,2_ + 1 x_2,3_ + 1 x_2,4_ + 1 x_2,5_ + 1 x_2,6_ + 1 x_2,7_ + 1 x_2,8_ + 1 x_2,9_ + 1 x_2,10_ + 1 x_3,1_ + 1 x_3,2_ + 1 x_3,3_ + 1 x_3,4_ + 1 x_3,5_ + 1 x_3,6_ + 1 x_3,7_ + 1 x_3,8_ + 1 x_3,9_ + 1 x_3,10_ + 1 x_4,1_ + 1 x_4,2_ + 1 x_4,3_ + 1 x_4,4_ + 1 x_4,5_ + 1 x_4,6_ + 1 x_4,7_ + 1 x_4,8_ + 1 x_4,9_ + 1 x_4,10_ + 1 x_5,1_ + 1 x_5,2_ + 1 x_5,3_ + 1 x_5,4_ + 1 x_5,5_ + 1 x_5,6_ + 1 x_5,7_ + 1 x_5,8_ + 1 x_5,9_ + 1 x_5,10_ + 1 x_6,1_ + 1 x_6,2_ + 1 x_6,3_ + 1 x_6,4_ + 1 x_6,5_ + 1 x_6,6_ + 1 x_6,7_ + 1 x_6,8_ + 1 x_6,9_ + 1 x_6,10_ + 1 x_7,1_ + 1 x_7,2_ + 1 x_7,3_ + 1 x_7,4_ + 1 x_7,5_ + 1 x_7,6_ + 1 x_7,7_ + 1 x_7,8_ + 1 x_7,9_ + 1 x_7,10_ + 1 x_8,1_ + 1 x_8,2_ + 1 x_8,3_ + 1 x_8,4_ + 1 x_8,5_ + 1 x_8,6_ + 1 x_8,7_ + 1 x_8,8_ + 1 x_8,9_ + 1 x_8,10_ + 1 x_9,1_ + 1 x_9,2_ + 1 x_9,3_ + 1 x_9,4_ + 1 x_9,5_ + 1 x_9,6_ + 1 x_9,7_ + 1 x_9,8_ + 1 x_9,9_ + 1 x_9,10_ + 1 x_10,1_ + 1 x_10,2_ + 1 x_10,3_ + 1 x_10,4_ + 1 x_10,5_ + 1 x_10,6_ + 1 x_10,7_ + 1 x_10,8_ + 1 x_10,9_ + 1 x_10,10_
subject to
capacity_1,1_: 1 x_1,1_ <= 0
capacity_2,1_: 1 x_2,1_ <= 0
capacity_3,1_: 1 x_3,1_ <= 0
capacity_4,1_: 1 x_4,1_ <= 0
capacity_5,1_: 1 x_5,1_ <= 0
capacity_6,1_: 1 x_6,1_ <= 0
capacity_7,1_: 1 x_7,1_ <= 0
capacity_8,1_: 1 x_8,1_ <= 0
capacity_9,1_: 1 x_9,1_ <= 0
capacity_10,1_: 1 x_10,1_ <= 0
capacity_1,2_: 1 x_1,2_ <= 16
capacity_2,2_: 1 x_2,2_ <= 0
capacity_3,2_: 1 x_3,2_ <= 4
capacity_4,2_: 1 x_4,2_ <= 0
capacity_5,2_: 1 x_5,2_ <= 0
capacity_6,2_: 1 x_6,2_ <= 0
capacity_7,2_: 1 x_7,2_ <= 0
capacity_8,2_: 1 x_8,2_ <= 0
capacity_9,2_: 1 x_9,2_ <= 0
capacity_10,2_: 1 x_10,2_ <= 0
capacity_1,3_: 1 x_1,3_ <= 13
capacity_2,3_: 1 x_2,3_ <= 0
capacity_3,3_: 1 x_3,3_ <= 0
capacity_4,3_: 1 x_4,3_ <= 0
capacity_5,3_: 1 x_5,3_ <= 9
capacity_6,3_: 1 x_6,3_ <= 0
capacity_7,3_: 1 x_7,3_ <= 0
capacity_8,3_: 1 x_8,3_ <= 0
capacity_9,3_: 1 x_9,3_ <= 0
capacity_10,3_: 1 x_10,3_ <= 0
capacity_1,4_: 1 x_1,4_ <= 0
capacity_2,4_: 1 x_2,4_ <= 7
capacity_3,4_: 1 x_3,4_ <= 0
capacity_4,4_: 1 x_4,4_ <= 0
capacity_5,4_: 1 x_5,4_ <= 0
capacity_6,4_: 1 x_6,4_ <= 0
capacity_7,4_: 1 x_7,4_ <= 0
capacity_8,4_: 1 x_8,4_ <= 0
capacity_9,4_: 1 x_9,4_ <= 0
capacity_10,4_: 1 x_10,4_ <= 0
capacity_1,5_: 1 x_1,5_ <= 0
capacity_2,5_: 1 x_2,5_ <= 12
capacity_3,5_: 1 x_3,5_ <= 0
capacity_4,5_: 1 x_4,5_ <= 10
capacity_5,5_: 1 x_5,5_ <= 0
capacity_6,5_: 1 x_6,5_ <= 7
capacity_7,5_: 1 x_7,5_ <= 0
capacity_8,5_: 1 x_8,5_ <= 6
capacity_9,5_: 1 x_9,5_ <= 0
capacity_10,5_: 1 x_10,5_ <= 0
capacity_1,6_: 1 x_1,6_ <= 0
capacity_2,6_: 1 x_2,6_ <= 0
capacity_3,6_: 1 x_3,6_ <= 14
capacity_4,6_: 1 x_4,6_ <= 0
capacity_5,6_: 1 x_5,6_ <= 0
capacity_6,6_: 1 x_6,6_ <= 0
capacity_7,6_: 1 x_7,6_ <= 0
capacity_8,6_: 1 x_8,6_ <= 0
capacity_9,6_: 1 x_9,6_ <= 0
capacity_10,6_: 1 x_10,6_ <= 0
capacity_1,7_: 1 x_1,7_ <= 0
capacity_2,7_: 1 x_2,7_ <= 0
capacity_3,7_: 1 x_3,7_ <= 0
capacity_4,7_: 1 x_4,7_ <= 0
capacity_5,7_: 1 x_5,7_ <= 0
capacity_6,7_: 1 x_6,7_ <= 7
capacity_7,7_: 1 x_7,7_ <= 0
capacity_8,7_: 1 x_8,7_ <= 0
capacity_9,7_: 1 x_9,7_ <= 0
capacity_10,7_: 1 x_10,7_ <= 0
capacity_1,8_: 1 x_1,8_ <= 0
capacity_2,8_: 1 x_2,8_ <= 0
capacity_3,8_: 1 x_3,8_ <= 0
capacity_4,8_: 1 x_4,8_ <= 0
capacity_5,8_: 1 x_5,8_ <= 4
capacity_6,8_: 1 x_6,8_ <= 0
capacity_7,8_: 1 x_7,8_ <= 0
capacity_8,8_: 1 x_8,8_ <= 0
capacity_9,8_: 1 x_9,8_ <= 5
capacity_10,8_: 1 x_10,8_ <= 0
capacity_1,9_: 1 x_1,9_ <= 0
capacity_2,9_: 1 x_2,9_ <= 0
capacity_3,9_: 1 x_3,9_ <= 0
capacity_4,9_: 1 x_4,9_ <= 0
capacity_5,9_: 1 x_5,9_ <= 20
capacity_6,9_: 1 x_6,9_ <= 4
capacity_7,9_: 1 x_7,9_ <= 15
capacity_8,9_: 1 x_8,9_ <= 9
capacity_9,9_: 1 x_9,9_ <= 0
capacity_10,9_: 1 x_10,9_ <= 0
capacity_1,10_: 1 x_1,10_ <= 0
capacity_2,10_: 1 x_2,10_ <= 0
capacity_3,10_: 1 x_3,10_ <= 0
capacity_4,10_: 1 x_4,10_ <= 0
capacity_5,10_: 1 x_5,10_ <= 0
capacity_6,10_: 1 x_6,10_ <= 0
capacity_7,10_: 1 x_7,10_ <= 0
capacity_8,10_: 1 x_8,10_ <= 10
capacity_9,10_: 1 x_9,10_ <= 12
capacity_10,10_: 1 x_10,10_ <= 0
flow_balance_2_: -1 x_2,1_ + 1 x_1,2_ + 1 x_3,2_ + 1 x_4,2_ + 1 x_5,2_ + 1 x_6,2_ + 1 x_7,2_ + 1 x_8,2_ + 1 x_9,2_ + 1 x_10,2_ - 1 x_2,3_ - 1 x_2,4_ - 1 x_2,5_ - 1 x_2,6_ - 1 x_2,7_ - 1 x_2,8_ - 1 x_2,9_ - 1 x_2,10_ = 0
flow_balance_3_: -1 x_3,1_ - 1 x_3,2_ + 1 x_1,3_ + 1 x_2,3_ + 1 x_4,3_ + 1 x_5,3_ + 1 x_6,3_ + 1 x_7,3_ + 1 x_8,3_ + 1 x_9,3_ + 1 x_10,3_ - 1 x_3,4_ - 1 x_3,5_ - 1 x_3,6_ - 1 x_3,7_ - 1 x_3,8_ - 1 x_3,9_ - 1 x_3,10_ = 0
flow_balance_4_: -1 x_4,1_ - 1 x_4,2_ - 1 x_4,3_ + 1 x_1,4_ + 1 x_2,4_ + 1 x_3,4_ + 1 x_5,4_ + 1 x_6,4_ + 1 x_7,4_ + 1 x_8,4_ + 1 x_9,4_ + 1 x_10,4_ - 1 x_4,5_ - 1 x_4,6_ - 1 x_4,7_ - 1 x_4,8_ - 1 x_4,9_ - 1 x_4,10_ = 0
flow_balance_5_: -1 x_5,1_ - 1 x_5,2_ - 1 x_5,3_ - 1 x_5,4_ + 1 x_1,5_ + 1 x_2,5_ + 1 x_3,5_ + 1 x_4,5_ + 1 x_6,5_ + 1 x_7,5_ + 1 x_8,5_ + 1 x_9,5_ + 1 x_10,5_ - 1 x_5,6_ - 1 x_5,7_ - 1 x_5,8_ - 1 x_5,9_ - 1 x_5,10_ = 0
flow_balance_6_: -1 x_6,1_ - 1 x_6,2_ - 1 x_6,3_ - 1 x_6,4_ - 1 x_6,5_ + 1 x_1,6_ + 1 x_2,6_ + 1 x_3,6_ + 1 x_4,6_ + 1 x_5,6_ + 1 x_7,6_ + 1 x_8,6_ + 1 x_9,6_ + 1 x_10,6_ - 1 x_6,7_ - 1 x_6,8_ - 1 x_6,9_ - 1 x_6,10_ = 0
flow_balance_7_: -1 x_7,1_ - 1 x_7,2_ - 1 x_7,3_ - 1 x_7,4_ - 1 x_7,5_ - 1 x_7,6_ + 1 x_1,7_ + 1 x_2,7_ + 1 x_3,7_ + 1 x_4,7_ + 1 x_5,7_ + 1 x_6,7_ + 1 x_8,7_ + 1 x_9,7_ + 1 x_10,7_ - 1 x_7,8_ - 1 x_7,9_ - 1 x_7,10_ = 0
flow_balance_8_: -1 x_8,1_ - 1 x_8,2_ - 1 x_8,3_ - 1 x_8,4_ - 1 x_8,5_ - 1 x_8,6_ - 1 x_8,7_ + 1 x_1,8_ + 1 x_2,8_ + 1 x_3,8_ + 1 x_4,8_ + 1 x_5,8_ + 1 x_6,8_ + 1 x_7,8_ + 1 x_9,8_ + 1 x_10,8_ - 1 x_8,9_ - 1 x_8,10_ = 0
flow_balance_9_: -1 x_9,1_ - 1 x_9,2_ - 1 x_9,3_ - 1 x_9,4_ - 1 x_9,5_ - 1 x_9,6_ - 1 x_9,7_ - 1 x_9,8_ + 1 x_1,9_ + 1 x_2,9_ + 1 x_3,9_ + 1 x_4,9_ + 1 x_5,9_ + 1 x_6,9_ + 1 x_7,9_ + 1 x_8,9_ + 1 x_10,9_ - 1 x_9,10_ = 0
Bounds
x_1,1_ >= 0
x_2,1_ >= 0
x_3,1_ >= 0
x_4,1_ >= 0
x_5,1_ >= 0
x_6,1_ >= 0
x_7,1_ >= 0
x_8,1_ >= 0
x_9,1_ >= 0
x_10,1_ >= 0
x_1,2_ >= 0
x_2,2_ >= 0
x_3,2_ >= 0
x_4,2_ >= 0
x_5,2_ >= 0
x_6,2_ >= 0
x_7,2_ >= 0
x_8,2_ >= 0
x_9,2_ >= 0
x_10,2_ >= 0
x_1,3_ >= 0
x_2,3_ >= 0
x_3,3_ >= 0
x_4,3_ >= 0
x_5,3_ >= 0
x_6,3_ >= 0
x_7,3_ >= 0
x_8,3_ >= 0
x_9,3_ >= 0
x_10,3_ >= 0
x_1,4_ >= 0
x_2,4_ >= 0
x_3,4_ >= 0
x_4,4_ >= 0
x_5,4_ >= 0
x_6,4_ >= 0
x_7,4_ >= 0
x_8,4_ >= 0
x_9,4_ >= 0
x_10,4_ >= 0
x_1,5_ >= 0
x_2,5_ >= 0
x_3,5_ >= 0
x_4,5_ >= 0
x_5,5_ >= 0
x_6,5_ >= 0
x_7,5_ >= 0
x_8,5_ >= 0
x_9,5_ >= 0
x_10,5_ >= 0
x_1,6_ >= 0
x_2,6_ >= 0
x_3,6_ >= 0
x_4,6_ >= 0
x_5,6_ >= 0
x_6,6_ >= 0
x_7,6_ >= 0
x_8,6_ >= 0
x_9,6_ >= 0
x_10,6_ >= 0
x_1,7_ >= 0
x_2,7_ >= 0
x_3,7_ >= 0
x_4,7_ >= 0
x_5,7_ >= 0
x_6,7_ >= 0
x_7,7_ >= 0
x_8,7_ >= 0
x_9,7_ >= 0
x_10,7_ >= 0
x_1,8_ >= 0
x_2,8_ >= 0
x_3,8_ >= 0
x_4,8_ >= 0
x_5,8_ >= 0
x_6,8_ >= 0
x_7,8_ >= 0
x_8,8_ >= 0
x_9,8_ >= 0
x_10,8_ >= 0
x_1,9_ >= 0
x_2,9_ >= 0
x_3,9_ >= 0
x_4,9_ >= 0
x_5,9_ >= 0
x_6,9_ >= 0
x_7,9_ >= 0
x_8,9_ >= 0
x_9,9_ >= 0
x_10,9_ >= 0
x_1,10_ >= 0
x_2,10_ >= 0
x_3,10_ >= 0
x_4,10_ >= 0
x_5,10_ >= 0
x_6,10_ >= 0
x_7,10_ >= 0
x_8,10_ >= 0
x_9,10_ >= 0
x_10,10_ >= 0
End
